p cnf 11 21
-11 -9 -3 0
11 -7 6 0
11 -7 3 0
-11 6 5 0
-10 -9 -3 0
10 8 -3 0
10 6 -4 0
10 -5 4 0
-10 -3 1 0
9 -8 -5 0
9 7 -6 0
-9 7 -3 0
-9 -5 2 0
-8 -7 4 0
-8 6 4 0
-8 -5 3 0
8 5 -2 0
8 -4 1 0
-7 -2 1 0
6 -5 4 0
-4 -2 -1 0
